W = 37;
H = 37;
N = 27;
Ws = [12, 4, 4, 5, 3, 3, 3, 5, 3, 4, 3, 3, 3, 5, 3, 3, 4, 3, 4, 5, 3, 4, 3, 5, 3, 4, 3];
Hs = [37, 24, 22, 14, 21, 18, 17, 10, 14, 10, 13, 12, 11, 6, 9, 8, 6, 7, 5, 4, 6, 4, 5, 3, 4, 3, 3];